Nmaterias=58;
DiurnaNocturna=0;
minCredito=9;
maxCredito=20;
materias=[1,2,3,4,5,6,7,8,9,10,11,12,13,14,15,16,17,18,19,20,21,22,23,24,25,26,27,28,29,30,31,32,33,34,35,36,37,38,39,40,41,42,43,44,45,46,47,48,49,50,51,52,53,54,55,56,57,58];
dependencias=[{},{},{},{},{},{},{1},{1},{},{2},{1},{6},{11,3},{5},{7,8},{9},{12},{7},{12},{16},{18},{18,15},{7},{},{15},{},{25},{17},{18},{24},{13},{17},{18},{},{29},{27},{11,19},{21,22},{32},{27},{25},{28},{39},{26},{},{42},{38},{40},{47},{47},{39,26},{39},{39},{},{51},{52},{48},{51}];
simultaneos=[1,2,3,4,5,6,7,8,8,10,11,12,13,14,15,15,17,18,19,22,21,22,23,25,25,26,27,28,29,27,31,32,33,34,35,36,37,38,39,40,41,42,43,44,45,46,47,48,49,50,51,52,53,54,55,56,57,58];
creditos=[5,1,3,2,2,5,5,4,2,1,3,4,3,2,4,2,4,4,3,2,3,4,2,2,3,3,3,3,2,2,4,4,3,2,2,4,3,3,4,4,3,3,4,3,2,4,3,3,4,6,3,2,3,1,3,6,3,6];
